69
150
120	2
119	3
118	1
116	1
115	1
114	1
111	1
110	1
109	1
107	1
105	1
104	1
101	1
100	1
98	1
97	2
95	1
94	2
90	1
89	3
88	2
86	1
85	1
83	1
82	2
78	1
77	1
76	1
75	1
74	1
72	1
70	1
69	1
68	1
67	1
66	2
65	1
64	3
63	2
62	2
61	1
60	2
59	2
56	2
54	1
52	2
51	5
50	1
49	1
44	2
43	2
42	2
41	2
39	2
38	1
36	1
35	1
34	1
33	2
32	1
31	2
29	2
24	2
23	1
21	1
20	1
19	1
18	1
16	1
